12 66
1 2 3
1 3 2
1 4 2
1 5 1
1 6 3
1 7 3
1 8 4
1 9 2
1 10 5
1 11 4
1 12 4
2 3 4
2 4 5
2 5 2
2 6 4
2 7 3
2 8 1
2 9 1
2 10 1
2 11 3
2 12 1
3 4 3
3 5 2
3 6 5
3 7 2
3 8 5
3 9 2
3 10 4
3 11 1
3 12 5
4 5 4
4 6 4
4 7 3
4 8 4
4 9 1
4 10 3
4 11 3
4 12 4
5 6 3
5 7 1
5 8 3
5 9 4
5 10 2
5 11 3
5 12 3
6 7 3
6 8 3
6 9 3
6 10 1
6 11 2
6 12 2
7 8 5
7 9 4
7 10 5
7 11 4
7 12 2
8 9 4
8 10 3
8 11 2
8 12 1
9 10 4
9 11 1
9 12 4
10 11 5
10 12 3
11 12 4
